5
8
20
1 1.3 1.55 1.75 2.1
45 35 36 45 7 25 36 28 12 35 16 29 48 20 22 19 29 26 10 14 21 34 30 39 47 12 8 37 39 30 20 46 14 5 20 16 21 34 38 15 34 26 16 9 37 7 7 45 44 45 45 31 36 24 27 16 13 17 48 37 34 44 7 40 5 42 19 41 36 22 19 43 33 43 38 28 27 8 39 26 29 6 24 19 5 22 45 19 41 44 14 41 47 33 38 37 32 28 5 46 33 38 21 23 43 6 21 43 11 44 30 22 33 18 44 41 30 46 30 10 17 13 27 18 44 17 9 23 15 18 17 17 39 40 19 9 21 24 13 30 10 11 48 19 39 28 23 13 27 20 48 17 35 17 42 17 34 39 37 39 